(set-logic LIA)

(declare-const tmp Int)
(declare-const tmp! Int)
(declare-const t Int)
(declare-const t! Int)
(declare-const j Int)
(declare-const j! Int)
(declare-const i Int)
(declare-const i! Int)
(declare-const c Int)
(declare-const c! Int)

(declare-const t_32 Int)
(declare-const t_24 Int)
(declare-const t_0 Int)
(declare-const j_31 Int)
(declare-const j_23 Int)
(declare-const j_0 Int)
(declare-const i_30 Int)
(declare-const i_25 Int)
(declare-const i_21 Int)
(declare-const c_0 Int)

(define-fun inv-f((c Int)(i Int)(j Int)(t Int)(tmp Int)) Bool
